152
Lattice="32.163010545 0.0 0.0 0.0 32.163010545 0.0 0.0 0.0 32.163010545" Properties=species:S:1:pos:R:3 npf_tag=Ni_sphere_d15nm npf_shape=sphere npf_crystal_structure=cubic npf_crystal_variant=fcc npf_source_crystal=/mnt/DEPO/Projects/in_progress/npf_v1/examples/Ni.cif pbc="F F F"
Ni      10.00000000      13.47514587      15.21271880
Ni      10.00000000      13.47514587      18.68786468
Ni      10.00000000      15.21271880      13.47514587
Ni      10.00000000      15.21271880      16.95029174
Ni      10.00000000      16.95029174      15.21271880
Ni      10.00000000      16.95029174      18.68786468
Ni      10.00000000      18.68786468      13.47514587
Ni      10.00000000      18.68786468      16.95029174
Ni      13.47514587      10.00000000      15.21271880
Ni      13.47514587      10.00000000      18.68786468
Ni      11.73757293      13.47514587      13.47514587
Ni      13.47514587      11.73757293      13.47514587
Ni      13.47514587      13.47514587      11.73757293
Ni      11.73757293      11.73757293      15.21271880
Ni      11.73757293      13.47514587      16.95029174
Ni      13.47514587      11.73757293      16.95029174
Ni      13.47514587      13.47514587      15.21271880
Ni      11.73757293      11.73757293      18.68786468
Ni      11.73757293      13.47514587      20.42543761
Ni      13.47514587      11.73757293      20.42543761
Ni      13.47514587      13.47514587      18.68786468
Ni      13.47514587      13.47514587      22.16301054
Ni      13.47514587      15.21271880      10.00000000
Ni      11.73757293      15.21271880      11.73757293
Ni      11.73757293      16.95029174      13.47514587
Ni      13.47514587      15.21271880      13.47514587
Ni      13.47514587      16.95029174      11.73757293
Ni      11.73757293      15.21271880      15.21271880
Ni      11.73757293      16.95029174      16.95029174
Ni      13.47514587      15.21271880      16.95029174
Ni      13.47514587      16.95029174      15.21271880
Ni      11.73757293      15.21271880      18.68786468
Ni      11.73757293      16.95029174      20.42543761
Ni      13.47514587      15.21271880      20.42543761
Ni      13.47514587      16.95029174      18.68786468
Ni      13.47514587      16.95029174      22.16301054
Ni      13.47514587      18.68786468      10.00000000
Ni      11.73757293      18.68786468      11.73757293
Ni      11.73757293      20.42543761      13.47514587
Ni      13.47514587      18.68786468      13.47514587
Ni      13.47514587      20.42543761      11.73757293
Ni      11.73757293      18.68786468      15.21271880
Ni      11.73757293      20.42543761      16.95029174
Ni      13.47514587      18.68786468      16.95029174
Ni      13.47514587      20.42543761      15.21271880
Ni      11.73757293      18.68786468      18.68786468
Ni      13.47514587      18.68786468      20.42543761
Ni      13.47514587      20.42543761      18.68786468
Ni      13.47514587      22.16301054      13.47514587
Ni      13.47514587      22.16301054      16.95029174
Ni      15.21271880      10.00000000      13.47514587
Ni      15.21271880      10.00000000      16.95029174
Ni      16.95029174      10.00000000      15.21271880
Ni      16.95029174      10.00000000      18.68786468
Ni      15.21271880      13.47514587      10.00000000
Ni      15.21271880      11.73757293      11.73757293
Ni      15.21271880      13.47514587      13.47514587
Ni      16.95029174      11.73757293      13.47514587
Ni      16.95029174      13.47514587      11.73757293
Ni      15.21271880      11.73757293      15.21271880
Ni      15.21271880      13.47514587      16.95029174
Ni      16.95029174      11.73757293      16.95029174
Ni      16.95029174      13.47514587      15.21271880
Ni      15.21271880      11.73757293      18.68786468
Ni      15.21271880      13.47514587      20.42543761
Ni      16.95029174      11.73757293      20.42543761
Ni      16.95029174      13.47514587      18.68786468
Ni      16.95029174      13.47514587      22.16301054
Ni      15.21271880      16.95029174      10.00000000
Ni      16.95029174      15.21271880      10.00000000
Ni      15.21271880      15.21271880      11.73757293
Ni      15.21271880      16.95029174      13.47514587
Ni      16.95029174      15.21271880      13.47514587
Ni      16.95029174      16.95029174      11.73757293
Ni      15.21271880      15.21271880      15.21271880
Ni      15.21271880      16.95029174      16.95029174
Ni      16.95029174      15.21271880      16.95029174
Ni      16.95029174      16.95029174      15.21271880
Ni      15.21271880      15.21271880      18.68786468
Ni      15.21271880      16.95029174      20.42543761
Ni      16.95029174      15.21271880      20.42543761
Ni      16.95029174      16.95029174      18.68786468
Ni      15.21271880      15.21271880      22.16301054
Ni      16.95029174      16.95029174      22.16301054
Ni      16.95029174      18.68786468      10.00000000
Ni      15.21271880      18.68786468      11.73757293
Ni      15.21271880      20.42543761      13.47514587
Ni      16.95029174      18.68786468      13.47514587
Ni      16.95029174      20.42543761      11.73757293
Ni      15.21271880      18.68786468      15.21271880
Ni      15.21271880      20.42543761      16.95029174
Ni      16.95029174      18.68786468      16.95029174
Ni      16.95029174      20.42543761      15.21271880
Ni      15.21271880      18.68786468      18.68786468
Ni      15.21271880      20.42543761      20.42543761
Ni      16.95029174      18.68786468      20.42543761
Ni      16.95029174      20.42543761      18.68786468
Ni      15.21271880      18.68786468      22.16301054
Ni      16.95029174      22.16301054      13.47514587
Ni      15.21271880      22.16301054      15.21271880
Ni      16.95029174      22.16301054      16.95029174
Ni      15.21271880      22.16301054      18.68786468
Ni      18.68786468      10.00000000      13.47514587
Ni      18.68786468      10.00000000      16.95029174
Ni      18.68786468      13.47514587      10.00000000
Ni      18.68786468      11.73757293      11.73757293
Ni      18.68786468      13.47514587      13.47514587
Ni      20.42543761      11.73757293      13.47514587
Ni      20.42543761      13.47514587      11.73757293
Ni      18.68786468      11.73757293      15.21271880
Ni      18.68786468      13.47514587      16.95029174
Ni      20.42543761      11.73757293      16.95029174
Ni      20.42543761      13.47514587      15.21271880
Ni      18.68786468      11.73757293      18.68786468
Ni      18.68786468      13.47514587      20.42543761
Ni      20.42543761      13.47514587      18.68786468
Ni      18.68786468      16.95029174      10.00000000
Ni      18.68786468      15.21271880      11.73757293
Ni      18.68786468      16.95029174      13.47514587
Ni      20.42543761      15.21271880      13.47514587
Ni      20.42543761      16.95029174      11.73757293
Ni      18.68786468      15.21271880      15.21271880
Ni      18.68786468      16.95029174      16.95029174
Ni      20.42543761      15.21271880      16.95029174
Ni      20.42543761      16.95029174      15.21271880
Ni      18.68786468      15.21271880      18.68786468
Ni      18.68786468      16.95029174      20.42543761
Ni      20.42543761      15.21271880      20.42543761
Ni      20.42543761      16.95029174      18.68786468
Ni      18.68786468      15.21271880      22.16301054
Ni      18.68786468      18.68786468      11.73757293
Ni      18.68786468      20.42543761      13.47514587
Ni      20.42543761      18.68786468      13.47514587
Ni      18.68786468      18.68786468      15.21271880
Ni      18.68786468      20.42543761      16.95029174
Ni      20.42543761      18.68786468      16.95029174
Ni      20.42543761      20.42543761      15.21271880
Ni      18.68786468      18.68786468      18.68786468
Ni      18.68786468      20.42543761      20.42543761
Ni      20.42543761      18.68786468      20.42543761
Ni      20.42543761      20.42543761      18.68786468
Ni      18.68786468      18.68786468      22.16301054
Ni      18.68786468      22.16301054      15.21271880
Ni      18.68786468      22.16301054      18.68786468
Ni      22.16301054      13.47514587      13.47514587
Ni      22.16301054      13.47514587      16.95029174
Ni      22.16301054      16.95029174      13.47514587
Ni      22.16301054      15.21271880      15.21271880
Ni      22.16301054      16.95029174      16.95029174
Ni      22.16301054      15.21271880      18.68786468
Ni      22.16301054      18.68786468      15.21271880
Ni      22.16301054      18.68786468      18.68786468
