Ni
 1.0000000000000000
    32.1630105449999988    0.0000000000000000    0.0000000000000000
     0.0000000000000000   32.1630105449999988    0.0000000000000000
     0.0000000000000000    0.0000000000000000   32.1630105449999988
 Ni 
 152
Cartesian
 10.0000000000000000 13.4751458699999986 15.2127188049999997
 10.0000000000000000 13.4751458699999986 18.6878646750000001
 10.0000000000000000 15.2127188049999997 13.4751458699999986
 10.0000000000000000 15.2127188049999997 16.9502917400000008
 10.0000000000000000 16.9502917400000008 15.2127188049999997
 10.0000000000000000 16.9502917400000008 18.6878646750000001
 10.0000000000000000 18.6878646750000001 13.4751458699999986
 10.0000000000000000 18.6878646750000001 16.9502917400000008
 13.4751458699999986 10.0000000000000000 15.2127188049999997
 13.4751458699999986 10.0000000000000000 18.6878646750000001
 11.7375729349999993 13.4751458699999986 13.4751458699999986
 13.4751458699999986 11.7375729349999993 13.4751458699999986
 13.4751458699999986 13.4751458699999986 11.7375729349999993
 11.7375729349999993 11.7375729349999993 15.2127188049999997
 11.7375729349999993 13.4751458699999986 16.9502917400000008
 13.4751458699999986 11.7375729349999993 16.9502917400000008
 13.4751458699999986 13.4751458699999986 15.2127188049999997
 11.7375729349999993 11.7375729349999993 18.6878646750000001
 11.7375729349999993 13.4751458699999986 20.4254376099999995
 13.4751458699999986 11.7375729349999993 20.4254376099999995
 13.4751458699999986 13.4751458699999986 18.6878646750000001
 13.4751458699999986 13.4751458699999986 22.1630105449999988
 13.4751458699999986 15.2127188049999997 10.0000000000000000
 11.7375729349999993 15.2127188049999997 11.7375729349999993
 11.7375729349999993 16.9502917400000008 13.4751458699999986
 13.4751458699999986 15.2127188049999997 13.4751458699999986
 13.4751458699999986 16.9502917400000008 11.7375729349999993
 11.7375729349999993 15.2127188049999997 15.2127188049999997
 11.7375729349999993 16.9502917400000008 16.9502917400000008
 13.4751458699999986 15.2127188049999997 16.9502917400000008
 13.4751458699999986 16.9502917400000008 15.2127188049999997
 11.7375729349999993 15.2127188049999997 18.6878646750000001
 11.7375729349999993 16.9502917400000008 20.4254376099999995
 13.4751458699999986 15.2127188049999997 20.4254376099999995
 13.4751458699999986 16.9502917400000008 18.6878646750000001
 13.4751458699999986 16.9502917400000008 22.1630105449999988
 13.4751458699999986 18.6878646750000001 10.0000000000000000
 11.7375729349999993 18.6878646750000001 11.7375729349999993
 11.7375729349999993 20.4254376099999995 13.4751458699999986
 13.4751458699999986 18.6878646750000001 13.4751458699999986
 13.4751458699999986 20.4254376099999995 11.7375729349999993
 11.7375729349999993 18.6878646750000001 15.2127188049999997
 11.7375729349999993 20.4254376099999995 16.9502917400000008
 13.4751458699999986 18.6878646750000001 16.9502917400000008
 13.4751458699999986 20.4254376099999995 15.2127188049999997
 11.7375729349999993 18.6878646750000001 18.6878646750000001
 13.4751458699999986 18.6878646750000001 20.4254376099999995
 13.4751458699999986 20.4254376099999995 18.6878646750000001
 13.4751458699999986 22.1630105449999988 13.4751458699999986
 13.4751458699999986 22.1630105449999988 16.9502917400000008
 15.2127188049999997 10.0000000000000000 13.4751458699999986
 15.2127188049999997 10.0000000000000000 16.9502917400000008
 16.9502917400000008 10.0000000000000000 15.2127188049999997
 16.9502917400000008 10.0000000000000000 18.6878646750000001
 15.2127188049999997 13.4751458699999986 10.0000000000000000
 15.2127188049999997 11.7375729349999993 11.7375729349999993
 15.2127188049999997 13.4751458699999986 13.4751458699999986
 16.9502917400000008 11.7375729349999993 13.4751458699999986
 16.9502917400000008 13.4751458699999986 11.7375729349999993
 15.2127188049999997 11.7375729349999993 15.2127188049999997
 15.2127188049999997 13.4751458699999986 16.9502917400000008
 16.9502917400000008 11.7375729349999993 16.9502917400000008
 16.9502917400000008 13.4751458699999986 15.2127188049999997
 15.2127188049999997 11.7375729349999993 18.6878646750000001
 15.2127188049999997 13.4751458699999986 20.4254376099999995
 16.9502917400000008 11.7375729349999993 20.4254376099999995
 16.9502917400000008 13.4751458699999986 18.6878646750000001
 16.9502917400000008 13.4751458699999986 22.1630105449999988
 15.2127188049999997 16.9502917400000008 10.0000000000000000
 16.9502917400000008 15.2127188049999997 10.0000000000000000
 15.2127188049999997 15.2127188049999997 11.7375729349999993
 15.2127188049999997 16.9502917400000008 13.4751458699999986
 16.9502917400000008 15.2127188049999997 13.4751458699999986
 16.9502917400000008 16.9502917400000008 11.7375729349999993
 15.2127188049999997 15.2127188049999997 15.2127188049999997
 15.2127188049999997 16.9502917400000008 16.9502917400000008
 16.9502917400000008 15.2127188049999997 16.9502917400000008
 16.9502917400000008 16.9502917400000008 15.2127188049999997
 15.2127188049999997 15.2127188049999997 18.6878646750000001
 15.2127188049999997 16.9502917400000008 20.4254376099999995
 16.9502917400000008 15.2127188049999997 20.4254376099999995
 16.9502917400000008 16.9502917400000008 18.6878646750000001
 15.2127188049999997 15.2127188049999997 22.1630105449999988
 16.9502917400000008 16.9502917400000008 22.1630105449999988
 16.9502917400000008 18.6878646750000001 10.0000000000000000
 15.2127188049999997 18.6878646750000001 11.7375729349999993
 15.2127188049999997 20.4254376099999995 13.4751458699999986
 16.9502917400000008 18.6878646750000001 13.4751458699999986
 16.9502917400000008 20.4254376099999995 11.7375729349999993
 15.2127188049999997 18.6878646750000001 15.2127188049999997
 15.2127188049999997 20.4254376099999995 16.9502917400000008
 16.9502917400000008 18.6878646750000001 16.9502917400000008
 16.9502917400000008 20.4254376099999995 15.2127188049999997
 15.2127188049999997 18.6878646750000001 18.6878646750000001
 15.2127188049999997 20.4254376099999995 20.4254376099999995
 16.9502917400000008 18.6878646750000001 20.4254376099999995
 16.9502917400000008 20.4254376099999995 18.6878646750000001
 15.2127188049999997 18.6878646750000001 22.1630105449999988
 16.9502917400000008 22.1630105449999988 13.4751458699999986
 15.2127188049999997 22.1630105449999988 15.2127188049999997
 16.9502917400000008 22.1630105449999988 16.9502917400000008
 15.2127188049999997 22.1630105449999988 18.6878646750000001
 18.6878646750000001 10.0000000000000000 13.4751458699999986
 18.6878646750000001 10.0000000000000000 16.9502917400000008
 18.6878646750000001 13.4751458699999986 10.0000000000000000
 18.6878646750000001 11.7375729349999993 11.7375729349999993
 18.6878646750000001 13.4751458699999986 13.4751458699999986
 20.4254376099999995 11.7375729349999993 13.4751458699999986
 20.4254376099999995 13.4751458699999986 11.7375729349999993
 18.6878646750000001 11.7375729349999993 15.2127188049999997
 18.6878646750000001 13.4751458699999986 16.9502917400000008
 20.4254376099999995 11.7375729349999993 16.9502917400000008
 20.4254376099999995 13.4751458699999986 15.2127188049999997
 18.6878646750000001 11.7375729349999993 18.6878646750000001
 18.6878646750000001 13.4751458699999986 20.4254376099999995
 20.4254376099999995 13.4751458699999986 18.6878646750000001
 18.6878646750000001 16.9502917400000008 10.0000000000000000
 18.6878646750000001 15.2127188049999997 11.7375729349999993
 18.6878646750000001 16.9502917400000008 13.4751458699999986
 20.4254376099999995 15.2127188049999997 13.4751458699999986
 20.4254376099999995 16.9502917400000008 11.7375729349999993
 18.6878646750000001 15.2127188049999997 15.2127188049999997
 18.6878646750000001 16.9502917400000008 16.9502917400000008
 20.4254376099999995 15.2127188049999997 16.9502917400000008
 20.4254376099999995 16.9502917400000008 15.2127188049999997
 18.6878646750000001 15.2127188049999997 18.6878646750000001
 18.6878646750000001 16.9502917400000008 20.4254376099999995
 20.4254376099999995 15.2127188049999997 20.4254376099999995
 20.4254376099999995 16.9502917400000008 18.6878646750000001
 18.6878646750000001 15.2127188049999997 22.1630105449999988
 18.6878646750000001 18.6878646750000001 11.7375729349999993
 18.6878646750000001 20.4254376099999995 13.4751458699999986
 20.4254376099999995 18.6878646750000001 13.4751458699999986
 18.6878646750000001 18.6878646750000001 15.2127188049999997
 18.6878646750000001 20.4254376099999995 16.9502917400000008
 20.4254376099999995 18.6878646750000001 16.9502917400000008
 20.4254376099999995 20.4254376099999995 15.2127188049999997
 18.6878646750000001 18.6878646750000001 18.6878646750000001
 18.6878646750000001 20.4254376099999995 20.4254376099999995
 20.4254376099999995 18.6878646750000001 20.4254376099999995
 20.4254376099999995 20.4254376099999995 18.6878646750000001
 18.6878646750000001 18.6878646750000001 22.1630105449999988
 18.6878646750000001 22.1630105449999988 15.2127188049999997
 18.6878646750000001 22.1630105449999988 18.6878646750000001
 22.1630105449999988 13.4751458699999986 13.4751458699999986
 22.1630105449999988 13.4751458699999986 16.9502917400000008
 22.1630105449999988 16.9502917400000008 13.4751458699999986
 22.1630105449999988 15.2127188049999997 15.2127188049999997
 22.1630105449999988 16.9502917400000008 16.9502917400000008
 22.1630105449999988 15.2127188049999997 18.6878646750000001
 22.1630105449999988 18.6878646750000001 15.2127188049999997
 22.1630105449999988 18.6878646750000001 18.6878646750000001
