Ni
 1.0000000000000000
    39.1133022850000032    0.0000000000000000    0.0000000000000000
     0.0000000000000000   39.1133022850000032    0.0000000000000000
     0.0000000000000000    0.0000000000000000   39.1133022850000032
 Ni 
 420
Cartesian
 10.0000000000000018 16.9502917400000008 18.6878646750000001
 10.0000000000000018 18.6878646750000001 16.9502917400000008
 10.0000000000000018 18.6878646750000001 20.4254376100000030
 10.0000000000000018 20.4254376100000030 18.6878646750000001
 10.0000000000000018 20.4254376100000030 22.1630105450000023
 10.0000000000000018 22.1630105450000023 20.4254376100000030
 13.4751458700000022 13.4751458700000022 15.2127188050000015
 11.7375729350000029 13.4751458700000022 20.4254376100000030
 13.4751458700000022 11.7375729350000029 20.4254376100000030
 13.4751458700000022 13.4751458700000022 18.6878646750000001
 13.4751458700000022 13.4751458700000022 22.1630105450000023
 13.4751458700000022 15.2127188050000015 13.4751458700000022
 11.7375729350000029 15.2127188050000015 15.2127188050000015
 11.7375729350000029 16.9502917400000008 16.9502917400000008
 13.4751458700000022 15.2127188050000015 16.9502917400000008
 13.4751458700000022 16.9502917400000008 15.2127188050000015
 11.7375729350000029 15.2127188050000015 18.6878646750000001
 11.7375729350000029 16.9502917400000008 20.4254376100000030
 13.4751458700000022 15.2127188050000015 20.4254376100000030
 13.4751458700000022 16.9502917400000008 18.6878646750000001
 11.7375729350000029 15.2127188050000015 22.1630105450000023
 11.7375729350000029 16.9502917400000008 23.9005834800000017
 13.4751458700000022 15.2127188050000015 23.9005834800000017
 13.4751458700000022 16.9502917400000008 22.1630105450000023
 13.4751458700000022 16.9502917400000008 25.6381564150000010
 11.7375729350000029 20.4254376100000030 13.4751458700000022
 13.4751458700000022 18.6878646750000001 13.4751458700000022
 13.4751458700000022 20.4254376100000030 11.7375729350000029
 11.7375729350000029 18.6878646750000001 15.2127188050000015
 11.7375729350000029 20.4254376100000030 16.9502917400000008
 13.4751458700000022 18.6878646750000001 16.9502917400000008
 13.4751458700000022 20.4254376100000030 15.2127188050000015
 11.7375729350000029 18.6878646750000001 18.6878646750000001
 11.7375729350000029 20.4254376100000030 20.4254376100000030
 13.4751458700000022 18.6878646750000001 20.4254376100000030
 13.4751458700000022 20.4254376100000030 18.6878646750000001
 11.7375729350000029 18.6878646750000001 22.1630105450000023
 11.7375729350000029 20.4254376100000030 23.9005834800000017
 13.4751458700000022 18.6878646750000001 23.9005834800000017
 13.4751458700000022 20.4254376100000030 22.1630105450000023
 11.7375729350000029 18.6878646750000001 25.6381564150000010
 13.4751458700000022 18.6878646750000001 27.3757293500000003
 13.4751458700000022 20.4254376100000030 25.6381564150000010
 13.4751458700000022 22.1630105450000023 13.4751458700000022
 11.7375729350000029 22.1630105450000023 15.2127188050000015
 11.7375729350000029 23.9005834800000017 16.9502917400000008
 13.4751458700000022 22.1630105450000023 16.9502917400000008
 13.4751458700000022 23.9005834800000017 15.2127188050000015
 11.7375729350000029 22.1630105450000023 18.6878646750000001
 11.7375729350000029 23.9005834800000017 20.4254376100000030
 13.4751458700000022 22.1630105450000023 20.4254376100000030
 13.4751458700000022 23.9005834800000017 18.6878646750000001
 11.7375729350000029 22.1630105450000023 22.1630105450000023
 11.7375729350000029 23.9005834800000017 23.9005834800000017
 13.4751458700000022 22.1630105450000023 23.9005834800000017
 13.4751458700000022 23.9005834800000017 22.1630105450000023
 13.4751458700000022 23.9005834800000017 25.6381564150000010
 13.4751458700000022 25.6381564150000010 16.9502917400000008
 11.7375729350000029 25.6381564150000010 18.6878646750000001
 13.4751458700000022 25.6381564150000010 20.4254376100000030
 13.4751458700000022 27.3757293500000003 18.6878646750000001
 13.4751458700000022 25.6381564150000010 23.9005834800000017
 16.9502917400000008 10.0000000000000018 18.6878646750000001
 15.2127188050000015 13.4751458700000022 13.4751458700000022
 15.2127188050000015 11.7375729350000029 15.2127188050000015
 15.2127188050000015 13.4751458700000022 16.9502917400000008
 16.9502917400000008 11.7375729350000029 16.9502917400000008
 16.9502917400000008 13.4751458700000022 15.2127188050000015
 15.2127188050000015 11.7375729350000029 18.6878646750000001
 15.2127188050000015 13.4751458700000022 20.4254376100000030
 16.9502917400000008 11.7375729350000029 20.4254376100000030
 16.9502917400000008 13.4751458700000022 18.6878646750000001
 15.2127188050000015 11.7375729350000029 22.1630105450000023
 15.2127188050000015 13.4751458700000022 23.9005834800000017
 16.9502917400000008 11.7375729350000029 23.9005834800000017
 16.9502917400000008 13.4751458700000022 22.1630105450000023
 16.9502917400000008 13.4751458700000022 25.6381564150000010
 15.2127188050000015 15.2127188050000015 11.7375729350000029
 15.2127188050000015 16.9502917400000008 13.4751458700000022
 16.9502917400000008 15.2127188050000015 13.4751458700000022
 16.9502917400000008 16.9502917400000008 11.7375729350000029
 15.2127188050000015 15.2127188050000015 15.2127188050000015
 15.2127188050000015 16.9502917400000008 16.9502917400000008
 16.9502917400000008 15.2127188050000015 16.9502917400000008
 16.9502917400000008 16.9502917400000008 15.2127188050000015
 15.2127188050000015 15.2127188050000015 18.6878646750000001
 15.2127188050000015 16.9502917400000008 20.4254376100000030
 16.9502917400000008 15.2127188050000015 20.4254376100000030
 16.9502917400000008 16.9502917400000008 18.6878646750000001
 15.2127188050000015 15.2127188050000015 22.1630105450000023
 15.2127188050000015 16.9502917400000008 23.9005834800000017
 16.9502917400000008 15.2127188050000015 23.9005834800000017
 16.9502917400000008 16.9502917400000008 22.1630105450000023
 15.2127188050000015 15.2127188050000015 25.6381564150000010
 15.2127188050000015 16.9502917400000008 27.3757293500000003
 16.9502917400000008 15.2127188050000015 27.3757293500000003
 16.9502917400000008 16.9502917400000008 25.6381564150000010
 16.9502917400000008 18.6878646750000001 10.0000000000000018
 15.2127188050000015 18.6878646750000001 11.7375729350000029
 15.2127188050000015 20.4254376100000030 13.4751458700000022
 16.9502917400000008 18.6878646750000001 13.4751458700000022
 16.9502917400000008 20.4254376100000030 11.7375729350000029
 15.2127188050000015 18.6878646750000001 15.2127188050000015
 15.2127188050000015 20.4254376100000030 16.9502917400000008
 16.9502917400000008 18.6878646750000001 16.9502917400000008
 16.9502917400000008 20.4254376100000030 15.2127188050000015
 15.2127188050000015 18.6878646750000001 18.6878646750000001
 15.2127188050000015 20.4254376100000030 20.4254376100000030
 16.9502917400000008 18.6878646750000001 20.4254376100000030
 16.9502917400000008 20.4254376100000030 18.6878646750000001
 15.2127188050000015 18.6878646750000001 22.1630105450000023
 15.2127188050000015 20.4254376100000030 23.9005834800000017
 16.9502917400000008 18.6878646750000001 23.9005834800000017
 16.9502917400000008 20.4254376100000030 22.1630105450000023
 15.2127188050000015 18.6878646750000001 25.6381564150000010
 15.2127188050000015 20.4254376100000030 27.3757293500000003
 16.9502917400000008 18.6878646750000001 27.3757293500000003
 16.9502917400000008 20.4254376100000030 25.6381564150000010
 16.9502917400000008 20.4254376100000030 29.1133022850000032
 15.2127188050000015 22.1630105450000023 11.7375729350000029
 15.2127188050000015 23.9005834800000017 13.4751458700000022
 16.9502917400000008 22.1630105450000023 13.4751458700000022
 16.9502917400000008 23.9005834800000017 11.7375729350000029
 15.2127188050000015 22.1630105450000023 15.2127188050000015
 15.2127188050000015 23.9005834800000017 16.9502917400000008
 16.9502917400000008 22.1630105450000023 16.9502917400000008
 16.9502917400000008 23.9005834800000017 15.2127188050000015
 15.2127188050000015 22.1630105450000023 18.6878646750000001
 15.2127188050000015 23.9005834800000017 20.4254376100000030
 16.9502917400000008 22.1630105450000023 20.4254376100000030
 16.9502917400000008 23.9005834800000017 18.6878646750000001
 15.2127188050000015 22.1630105450000023 22.1630105450000023
 15.2127188050000015 23.9005834800000017 23.9005834800000017
 16.9502917400000008 22.1630105450000023 23.9005834800000017
 16.9502917400000008 23.9005834800000017 22.1630105450000023
 15.2127188050000015 22.1630105450000023 25.6381564150000010
 15.2127188050000015 23.9005834800000017 27.3757293500000003
 16.9502917400000008 22.1630105450000023 27.3757293500000003
 16.9502917400000008 23.9005834800000017 25.6381564150000010
 16.9502917400000008 25.6381564150000010 13.4751458700000022
 15.2127188050000015 25.6381564150000010 15.2127188050000015
 15.2127188050000015 27.3757293500000003 16.9502917400000008
 16.9502917400000008 25.6381564150000010 16.9502917400000008
 16.9502917400000008 27.3757293500000003 15.2127188050000015
 15.2127188050000015 25.6381564150000010 18.6878646750000001
 15.2127188050000015 27.3757293500000003 20.4254376100000030
 16.9502917400000008 25.6381564150000010 20.4254376100000030
 16.9502917400000008 27.3757293500000003 18.6878646750000001
 15.2127188050000015 25.6381564150000010 22.1630105450000023
 15.2127188050000015 27.3757293500000003 23.9005834800000017
 16.9502917400000008 25.6381564150000010 23.9005834800000017
 16.9502917400000008 27.3757293500000003 22.1630105450000023
 15.2127188050000015 25.6381564150000010 25.6381564150000010
 16.9502917400000008 29.1133022850000032 20.4254376100000030
 18.6878646750000001 10.0000000000000018 16.9502917400000008
 18.6878646750000001 10.0000000000000018 20.4254376100000030
 20.4254376100000030 10.0000000000000018 18.6878646750000001
 20.4254376100000030 10.0000000000000018 22.1630105450000023
 18.6878646750000001 13.4751458700000022 13.4751458700000022
 20.4254376100000030 11.7375729350000029 13.4751458700000022
 20.4254376100000030 13.4751458700000022 11.7375729350000029
 18.6878646750000001 11.7375729350000029 15.2127188050000015
 18.6878646750000001 13.4751458700000022 16.9502917400000008
 20.4254376100000030 11.7375729350000029 16.9502917400000008
 20.4254376100000030 13.4751458700000022 15.2127188050000015
 18.6878646750000001 11.7375729350000029 18.6878646750000001
 18.6878646750000001 13.4751458700000022 20.4254376100000030
 20.4254376100000030 11.7375729350000029 20.4254376100000030
 20.4254376100000030 13.4751458700000022 18.6878646750000001
 18.6878646750000001 11.7375729350000029 22.1630105450000023
 18.6878646750000001 13.4751458700000022 23.9005834800000017
 20.4254376100000030 11.7375729350000029 23.9005834800000017
 20.4254376100000030 13.4751458700000022 22.1630105450000023
 18.6878646750000001 11.7375729350000029 25.6381564150000010
 18.6878646750000001 13.4751458700000022 27.3757293500000003
 20.4254376100000030 13.4751458700000022 25.6381564150000010
 18.6878646750000001 16.9502917400000008 10.0000000000000018
 18.6878646750000001 15.2127188050000015 11.7375729350000029
 18.6878646750000001 16.9502917400000008 13.4751458700000022
 20.4254376100000030 15.2127188050000015 13.4751458700000022
 20.4254376100000030 16.9502917400000008 11.7375729350000029
 18.6878646750000001 15.2127188050000015 15.2127188050000015
 18.6878646750000001 16.9502917400000008 16.9502917400000008
 20.4254376100000030 15.2127188050000015 16.9502917400000008
 20.4254376100000030 16.9502917400000008 15.2127188050000015
 18.6878646750000001 15.2127188050000015 18.6878646750000001
 18.6878646750000001 16.9502917400000008 20.4254376100000030
 20.4254376100000030 15.2127188050000015 20.4254376100000030
 20.4254376100000030 16.9502917400000008 18.6878646750000001
 18.6878646750000001 15.2127188050000015 22.1630105450000023
 18.6878646750000001 16.9502917400000008 23.9005834800000017
 20.4254376100000030 15.2127188050000015 23.9005834800000017
 20.4254376100000030 16.9502917400000008 22.1630105450000023
 18.6878646750000001 15.2127188050000015 25.6381564150000010
 18.6878646750000001 16.9502917400000008 27.3757293500000003
 20.4254376100000030 15.2127188050000015 27.3757293500000003
 20.4254376100000030 16.9502917400000008 25.6381564150000010
 20.4254376100000030 16.9502917400000008 29.1133022850000032
 18.6878646750000001 20.4254376100000030 10.0000000000000018
 20.4254376100000030 18.6878646750000001 10.0000000000000018
 18.6878646750000001 18.6878646750000001 11.7375729350000029
 18.6878646750000001 20.4254376100000030 13.4751458700000022
 20.4254376100000030 18.6878646750000001 13.4751458700000022
 20.4254376100000030 20.4254376100000030 11.7375729350000029
 18.6878646750000001 18.6878646750000001 15.2127188050000015
 18.6878646750000001 20.4254376100000030 16.9502917400000008
 20.4254376100000030 18.6878646750000001 16.9502917400000008
 20.4254376100000030 20.4254376100000030 15.2127188050000015
 18.6878646750000001 18.6878646750000001 18.6878646750000001
 18.6878646750000001 20.4254376100000030 20.4254376100000030
 20.4254376100000030 18.6878646750000001 20.4254376100000030
 20.4254376100000030 20.4254376100000030 18.6878646750000001
 18.6878646750000001 18.6878646750000001 22.1630105450000023
 18.6878646750000001 20.4254376100000030 23.9005834800000017
 20.4254376100000030 18.6878646750000001 23.9005834800000017
 20.4254376100000030 20.4254376100000030 22.1630105450000023
 18.6878646750000001 18.6878646750000001 25.6381564150000010
 18.6878646750000001 20.4254376100000030 27.3757293500000003
 20.4254376100000030 18.6878646750000001 27.3757293500000003
 20.4254376100000030 20.4254376100000030 25.6381564150000010
 18.6878646750000001 18.6878646750000001 29.1133022850000032
 20.4254376100000030 20.4254376100000030 29.1133022850000032
 20.4254376100000030 22.1630105450000023 10.0000000000000018
 18.6878646750000001 22.1630105450000023 11.7375729350000029
 18.6878646750000001 23.9005834800000017 13.4751458700000022
 20.4254376100000030 22.1630105450000023 13.4751458700000022
 20.4254376100000030 23.9005834800000017 11.7375729350000029
 18.6878646750000001 22.1630105450000023 15.2127188050000015
 18.6878646750000001 23.9005834800000017 16.9502917400000008
 20.4254376100000030 22.1630105450000023 16.9502917400000008
 20.4254376100000030 23.9005834800000017 15.2127188050000015
 18.6878646750000001 22.1630105450000023 18.6878646750000001
 18.6878646750000001 23.9005834800000017 20.4254376100000030
 20.4254376100000030 22.1630105450000023 20.4254376100000030
 20.4254376100000030 23.9005834800000017 18.6878646750000001
 18.6878646750000001 22.1630105450000023 22.1630105450000023
 18.6878646750000001 23.9005834800000017 23.9005834800000017
 20.4254376100000030 22.1630105450000023 23.9005834800000017
 20.4254376100000030 23.9005834800000017 22.1630105450000023
 18.6878646750000001 22.1630105450000023 25.6381564150000010
 18.6878646750000001 23.9005834800000017 27.3757293500000003
 20.4254376100000030 22.1630105450000023 27.3757293500000003
 20.4254376100000030 23.9005834800000017 25.6381564150000010
 18.6878646750000001 22.1630105450000023 29.1133022850000032
 18.6878646750000001 25.6381564150000010 11.7375729350000029
 18.6878646750000001 27.3757293500000003 13.4751458700000022
 20.4254376100000030 25.6381564150000010 13.4751458700000022
 18.6878646750000001 25.6381564150000010 15.2127188050000015
 18.6878646750000001 27.3757293500000003 16.9502917400000008
 20.4254376100000030 25.6381564150000010 16.9502917400000008
 20.4254376100000030 27.3757293500000003 15.2127188050000015
 18.6878646750000001 25.6381564150000010 18.6878646750000001
 18.6878646750000001 27.3757293500000003 20.4254376100000030
 20.4254376100000030 25.6381564150000010 20.4254376100000030
 20.4254376100000030 27.3757293500000003 18.6878646750000001
 18.6878646750000001 25.6381564150000010 22.1630105450000023
 18.6878646750000001 27.3757293500000003 23.9005834800000017
 20.4254376100000030 25.6381564150000010 23.9005834800000017
 20.4254376100000030 27.3757293500000003 22.1630105450000023
 18.6878646750000001 25.6381564150000010 25.6381564150000010
 20.4254376100000030 25.6381564150000010 27.3757293500000003
 20.4254376100000030 27.3757293500000003 25.6381564150000010
 20.4254376100000030 29.1133022850000032 16.9502917400000008
 18.6878646750000001 29.1133022850000032 18.6878646750000001
 20.4254376100000030 29.1133022850000032 20.4254376100000030
 18.6878646750000001 29.1133022850000032 22.1630105450000023
 22.1630105450000023 10.0000000000000018 20.4254376100000030
 22.1630105450000023 13.4751458700000022 13.4751458700000022
 22.1630105450000023 11.7375729350000029 15.2127188050000015
 22.1630105450000023 13.4751458700000022 16.9502917400000008
 23.9005834800000017 11.7375729350000029 16.9502917400000008
 23.9005834800000017 13.4751458700000022 15.2127188050000015
 22.1630105450000023 11.7375729350000029 18.6878646750000001
 22.1630105450000023 13.4751458700000022 20.4254376100000030
 23.9005834800000017 11.7375729350000029 20.4254376100000030
 23.9005834800000017 13.4751458700000022 18.6878646750000001
 22.1630105450000023 11.7375729350000029 22.1630105450000023
 22.1630105450000023 13.4751458700000022 23.9005834800000017
 23.9005834800000017 11.7375729350000029 23.9005834800000017
 23.9005834800000017 13.4751458700000022 22.1630105450000023
 23.9005834800000017 13.4751458700000022 25.6381564150000010
 22.1630105450000023 15.2127188050000015 11.7375729350000029
 22.1630105450000023 16.9502917400000008 13.4751458700000022
 23.9005834800000017 15.2127188050000015 13.4751458700000022
 23.9005834800000017 16.9502917400000008 11.7375729350000029
 22.1630105450000023 15.2127188050000015 15.2127188050000015
 22.1630105450000023 16.9502917400000008 16.9502917400000008
 23.9005834800000017 15.2127188050000015 16.9502917400000008
 23.9005834800000017 16.9502917400000008 15.2127188050000015
 22.1630105450000023 15.2127188050000015 18.6878646750000001
 22.1630105450000023 16.9502917400000008 20.4254376100000030
 23.9005834800000017 15.2127188050000015 20.4254376100000030
 23.9005834800000017 16.9502917400000008 18.6878646750000001
 22.1630105450000023 15.2127188050000015 22.1630105450000023
 22.1630105450000023 16.9502917400000008 23.9005834800000017
 23.9005834800000017 15.2127188050000015 23.9005834800000017
 23.9005834800000017 16.9502917400000008 22.1630105450000023
 22.1630105450000023 15.2127188050000015 25.6381564150000010
 22.1630105450000023 16.9502917400000008 27.3757293500000003
 23.9005834800000017 15.2127188050000015 27.3757293500000003
 23.9005834800000017 16.9502917400000008 25.6381564150000010
 22.1630105450000023 20.4254376100000030 10.0000000000000018
 22.1630105450000023 18.6878646750000001 11.7375729350000029
 22.1630105450000023 20.4254376100000030 13.4751458700000022
 23.9005834800000017 18.6878646750000001 13.4751458700000022
 23.9005834800000017 20.4254376100000030 11.7375729350000029
 22.1630105450000023 18.6878646750000001 15.2127188050000015
 22.1630105450000023 20.4254376100000030 16.9502917400000008
 23.9005834800000017 18.6878646750000001 16.9502917400000008
 23.9005834800000017 20.4254376100000030 15.2127188050000015
 22.1630105450000023 18.6878646750000001 18.6878646750000001
 22.1630105450000023 20.4254376100000030 20.4254376100000030
 23.9005834800000017 18.6878646750000001 20.4254376100000030
 23.9005834800000017 20.4254376100000030 18.6878646750000001
 22.1630105450000023 18.6878646750000001 22.1630105450000023
 22.1630105450000023 20.4254376100000030 23.9005834800000017
 23.9005834800000017 18.6878646750000001 23.9005834800000017
 23.9005834800000017 20.4254376100000030 22.1630105450000023
 22.1630105450000023 18.6878646750000001 25.6381564150000010
 22.1630105450000023 20.4254376100000030 27.3757293500000003
 23.9005834800000017 18.6878646750000001 27.3757293500000003
 23.9005834800000017 20.4254376100000030 25.6381564150000010
 22.1630105450000023 18.6878646750000001 29.1133022850000032
 22.1630105450000023 22.1630105450000023 11.7375729350000029
 22.1630105450000023 23.9005834800000017 13.4751458700000022
 23.9005834800000017 22.1630105450000023 13.4751458700000022
 23.9005834800000017 23.9005834800000017 11.7375729350000029
 22.1630105450000023 22.1630105450000023 15.2127188050000015
 22.1630105450000023 23.9005834800000017 16.9502917400000008
 23.9005834800000017 22.1630105450000023 16.9502917400000008
 23.9005834800000017 23.9005834800000017 15.2127188050000015
 22.1630105450000023 22.1630105450000023 18.6878646750000001
 22.1630105450000023 23.9005834800000017 20.4254376100000030
 23.9005834800000017 22.1630105450000023 20.4254376100000030
 23.9005834800000017 23.9005834800000017 18.6878646750000001
 22.1630105450000023 22.1630105450000023 22.1630105450000023
 22.1630105450000023 23.9005834800000017 23.9005834800000017
 23.9005834800000017 22.1630105450000023 23.9005834800000017
 23.9005834800000017 23.9005834800000017 22.1630105450000023
 22.1630105450000023 22.1630105450000023 25.6381564150000010
 22.1630105450000023 23.9005834800000017 27.3757293500000003
 23.9005834800000017 22.1630105450000023 27.3757293500000003
 23.9005834800000017 23.9005834800000017 25.6381564150000010
 23.9005834800000017 25.6381564150000010 13.4751458700000022
 22.1630105450000023 25.6381564150000010 15.2127188050000015
 22.1630105450000023 27.3757293500000003 16.9502917400000008
 23.9005834800000017 25.6381564150000010 16.9502917400000008
 23.9005834800000017 27.3757293500000003 15.2127188050000015
 22.1630105450000023 25.6381564150000010 18.6878646750000001
 22.1630105450000023 27.3757293500000003 20.4254376100000030
 23.9005834800000017 25.6381564150000010 20.4254376100000030
 23.9005834800000017 27.3757293500000003 18.6878646750000001
 22.1630105450000023 25.6381564150000010 22.1630105450000023
 22.1630105450000023 27.3757293500000003 23.9005834800000017
 23.9005834800000017 25.6381564150000010 23.9005834800000017
 23.9005834800000017 27.3757293500000003 22.1630105450000023
 22.1630105450000023 25.6381564150000010 25.6381564150000010
 22.1630105450000023 29.1133022850000032 18.6878646750000001
 25.6381564150000010 13.4751458700000022 16.9502917400000008
 25.6381564150000010 11.7375729350000029 18.6878646750000001
 25.6381564150000010 13.4751458700000022 20.4254376100000030
 27.3757293500000003 13.4751458700000022 18.6878646750000001
 25.6381564150000010 13.4751458700000022 23.9005834800000017
 25.6381564150000010 16.9502917400000008 13.4751458700000022
 25.6381564150000010 15.2127188050000015 15.2127188050000015
 25.6381564150000010 16.9502917400000008 16.9502917400000008
 27.3757293500000003 15.2127188050000015 16.9502917400000008
 27.3757293500000003 16.9502917400000008 15.2127188050000015
 25.6381564150000010 15.2127188050000015 18.6878646750000001
 25.6381564150000010 16.9502917400000008 20.4254376100000030
 27.3757293500000003 15.2127188050000015 20.4254376100000030
 27.3757293500000003 16.9502917400000008 18.6878646750000001
 25.6381564150000010 15.2127188050000015 22.1630105450000023
 25.6381564150000010 16.9502917400000008 23.9005834800000017
 27.3757293500000003 15.2127188050000015 23.9005834800000017
 27.3757293500000003 16.9502917400000008 22.1630105450000023
 25.6381564150000010 15.2127188050000015 25.6381564150000010
 25.6381564150000010 18.6878646750000001 11.7375729350000029
 25.6381564150000010 20.4254376100000030 13.4751458700000022
 27.3757293500000003 18.6878646750000001 13.4751458700000022
 25.6381564150000010 18.6878646750000001 15.2127188050000015
 25.6381564150000010 20.4254376100000030 16.9502917400000008
 27.3757293500000003 18.6878646750000001 16.9502917400000008
 27.3757293500000003 20.4254376100000030 15.2127188050000015
 25.6381564150000010 18.6878646750000001 18.6878646750000001
 25.6381564150000010 20.4254376100000030 20.4254376100000030
 27.3757293500000003 18.6878646750000001 20.4254376100000030
 27.3757293500000003 20.4254376100000030 18.6878646750000001
 25.6381564150000010 18.6878646750000001 22.1630105450000023
 25.6381564150000010 20.4254376100000030 23.9005834800000017
 27.3757293500000003 18.6878646750000001 23.9005834800000017
 27.3757293500000003 20.4254376100000030 22.1630105450000023
 25.6381564150000010 18.6878646750000001 25.6381564150000010
 25.6381564150000010 20.4254376100000030 27.3757293500000003
 27.3757293500000003 20.4254376100000030 25.6381564150000010
 25.6381564150000010 23.9005834800000017 13.4751458700000022
 25.6381564150000010 22.1630105450000023 15.2127188050000015
 25.6381564150000010 23.9005834800000017 16.9502917400000008
 27.3757293500000003 22.1630105450000023 16.9502917400000008
 27.3757293500000003 23.9005834800000017 15.2127188050000015
 25.6381564150000010 22.1630105450000023 18.6878646750000001
 25.6381564150000010 23.9005834800000017 20.4254376100000030
 27.3757293500000003 22.1630105450000023 20.4254376100000030
 27.3757293500000003 23.9005834800000017 18.6878646750000001
 25.6381564150000010 22.1630105450000023 22.1630105450000023
 25.6381564150000010 23.9005834800000017 23.9005834800000017
 27.3757293500000003 22.1630105450000023 23.9005834800000017
 27.3757293500000003 23.9005834800000017 22.1630105450000023
 25.6381564150000010 22.1630105450000023 25.6381564150000010
 25.6381564150000010 25.6381564150000010 15.2127188050000015
 25.6381564150000010 25.6381564150000010 18.6878646750000001
 25.6381564150000010 27.3757293500000003 20.4254376100000030
 27.3757293500000003 25.6381564150000010 20.4254376100000030
 25.6381564150000010 25.6381564150000010 22.1630105450000023
 29.1133022850000032 16.9502917400000008 20.4254376100000030
 29.1133022850000032 20.4254376100000030 16.9502917400000008
 29.1133022850000032 18.6878646750000001 18.6878646750000001
 29.1133022850000032 20.4254376100000030 20.4254376100000030
 29.1133022850000032 18.6878646750000001 22.1630105450000023
 29.1133022850000032 22.1630105450000023 18.6878646750000001
